(set-logic QF_UF)
(declare-fun A0 () Bool)
(declare-fun A2 () Bool)
(declare-fun A3 () Bool)
(declare-fun A4 () Bool)
(declare-fun A5 () Bool)
(declare-fun A6 () Bool)
(declare-fun A8 () Bool)
(declare-fun A9 () Bool)
(declare-fun A10 () Bool)
(declare-fun A11 () Bool)
(declare-fun A12 () Bool)
(declare-fun A13 () Bool)
(declare-fun A14 () Bool)
(declare-fun A15 () Bool)
(declare-fun A16 () Bool)
(declare-fun A17 () Bool)
(declare-fun A18 () Bool)
(declare-fun A19 () Bool)
(declare-fun A20 () Bool)
(declare-fun A21 () Bool)
(declare-fun A22 () Bool)
(declare-fun A23 () Bool)
(declare-fun A24 () Bool)
(assert (let ((.def_0 (not A11))) (let ((.def_1 (not A18))) (let ((.def_2 (or .def_1 .def_0))) (let ((.def_3 (not A2))) (let ((.def_4 (= A13 .def_3))) (let ((.def_5 (not .def_4))) (let ((.def_6 (or .def_5 .def_2))) (let ((.def_7 (not A3))) (let ((.def_8 (and .def_7 A15))) (let ((.def_9 (or A21 A22))) (let ((.def_10 (or .def_9 .def_8))) (let ((.def_11 (not .def_10))) (let ((.def_12 (or .def_11 .def_6))) (let ((.def_13 (not .def_12))) (let ((.def_14 (not A8))) (let ((.def_15 (or .def_14 A10))) (let ((.def_16 (not A5))) (let ((.def_17 (and .def_16 A19))) (let ((.def_18 (not .def_17))) (let ((.def_19 (or .def_18 .def_15))) (let ((.def_20 (not .def_19))) (let ((.def_21 (or A5 A8))) (let ((.def_22 (not .def_21))) (let ((.def_23 (not A20))) (let ((.def_24 (and .def_23 A2))) (let ((.def_25 (not .def_24))) (let ((.def_26 (or .def_25 .def_22))) (let ((.def_27 (not .def_26))) (let ((.def_28 (and .def_27 .def_20))) (let ((.def_29 (not .def_28))) (let ((.def_30 (or .def_29 .def_13))) (let ((.def_31 (and A2 A21))) (let ((.def_32 (not .def_31))) (let ((.def_33 (not A12))) (let ((.def_34 (and A19 .def_33))) (let ((.def_35 (or .def_34 .def_32))) (let ((.def_36 (not .def_35))) (let ((.def_37 (and .def_23 A20))) (let ((.def_38 (not A15))) (let ((.def_39 (and .def_33 .def_38))) (let ((.def_40 (or .def_39 .def_37))) (let ((.def_41 (not .def_40))) (let ((.def_42 (= .def_41 .def_36))) (let ((.def_43 (not .def_42))) (let ((.def_44 (or A3 A19))) (let ((.def_45 (not A24))) (let ((.def_46 (or .def_45 .def_3))) (let ((.def_47 (or .def_46 .def_44))) (let ((.def_48 (and A0 A2))) (let ((.def_49 (not .def_48))) (let ((.def_50 (not A17))) (let ((.def_51 (or A18 .def_50))) (let ((.def_52 (or .def_51 .def_49))) (let ((.def_53 (not .def_52))) (let ((.def_54 (and .def_53 .def_47))) (let ((.def_55 (= .def_54 .def_43))) (let ((.def_56 (or .def_55 .def_30))) (let ((.def_57 (not .def_56))) (let ((.def_58 (not A13))) (let ((.def_59 (and .def_58 .def_23))) (let ((.def_60 (not A16))) (let ((.def_61 (or .def_60 A17))) (let ((.def_62 (or .def_61 .def_59))) (let ((.def_63 (not A6))) (let ((.def_64 (and .def_38 .def_63))) (let ((.def_65 (not A9))) (let ((.def_66 (or .def_65 A23))) (let ((.def_67 (not .def_66))) (let ((.def_68 (or .def_67 .def_64))) (let ((.def_69 (or .def_68 .def_62))) (let ((.def_70 (not .def_69))) (let ((.def_71 (not A21))) (let ((.def_72 (and .def_38 .def_71))) (let ((.def_73 (and A13 .def_63))) (let ((.def_74 (not .def_73))) (let ((.def_75 (and .def_74 .def_72))) (let ((.def_76 (not .def_75))) (let ((.def_77 (not A14))) (let ((.def_78 (and .def_77 .def_0))) (let ((.def_79 (not .def_78))) (let ((.def_80 (not .def_8))) (let ((.def_81 (or .def_80 .def_79))) (let ((.def_82 (not .def_81))) (let ((.def_83 (or .def_82 .def_76))) (let ((.def_84 (not .def_83))) (let ((.def_85 (or .def_84 .def_70))) (let ((.def_86 (not .def_85))) (let ((.def_87 (and A9 A16))) (let ((.def_88 (and A14 .def_16))) (let ((.def_89 (or .def_88 .def_87))) (let ((.def_90 (or A5 .def_71))) (let ((.def_91 (not .def_90))) (let ((.def_92 (= A13 A21))) (let ((.def_93 (not .def_92))) (let ((.def_94 (and .def_93 .def_91))) (let ((.def_95 (not .def_94))) (let ((.def_96 (or .def_95 .def_89))) (let ((.def_97 (not .def_96))) (let ((.def_98 (not A4))) (let ((.def_99 (not A22))) (let ((.def_100 (and .def_99 .def_98))) (let ((.def_101 (and .def_1 .def_71))) (let ((.def_102 (not .def_101))) (let ((.def_103 (and .def_102 .def_100))) (let ((.def_104 (and .def_71 A0))) (let ((.def_105 (not .def_104))) (let ((.def_106 (not A10))) (let ((.def_107 (or A15 .def_106))) (let ((.def_108 (not .def_107))) (let ((.def_109 (or .def_108 .def_105))) (let ((.def_110 (not .def_109))) (let ((.def_111 (and .def_110 .def_103))) (let ((.def_112 (or .def_111 .def_97))) (let ((.def_113 (= .def_112 .def_86))) (let ((.def_114 (and .def_113 .def_57))) .def_114))))))))))))))))))))))))))))))))))))))))))))))))))))))))))))))))))))))))))))))))))))))))))))))))))))))))))))))))))))
(check-sat)
